num_features = 36;
num_usage_limits = 5;
num_plans = 4;
num_addons = 0;

features = ["cloudStorage", "customBusinessEmail", "mailbox", "sharedCalendars", "calendar", "realTimeCollaboration", "multiplatformFileAccess", "fileStoring", "stream", "chat", "onlineMeetings", "microsoftSharePoint", "guestMeetingsInvitations", "emailSpamFilter", "passwordPolicies", "multifactorAuthetication", "securityGroups", "teamSchedulesAndTaskManagement", "microsoftLists", "microsoftForms", "microsoftBookings", "phoneAndOnlineSupport", "technicalSupport", "troubleshootingContent", "uptimeGuarantee", "microsoftWordWebApp", "microsoftExcelWebApp", "microsoftPowerPointWebApp", "microsoftOneNoteWebApp", "microsoftOutlookWebApp", "microsoftWordMobileApp", "microsoftExcelMobileApp", "microsoftPowerPointMobileApp", "microsoftOneNoteMobileApp", "microsoftOutlookMobileApp", "microsoftTeams", "microsoftPlanner", "microsoftWordDesktopApp", "microsoftExcelDesktopApp", "microsoftPowerPointDesktopApp", "microsoftOneNoteDesktopApp", "microsoftOutlookDesktopApp", "microsoftPublisher", "microsoftAccess", "webinars", "webinarInvitationManagement", "webinarData", "enterpriseGradeEndpointSecurity", "emailThreatsProtection", "informationRightsManagement", "conditionalAccessDefinition", "securityPoliciesApplication", "dataEnvironmentManagement", "remoteInformationRemoval"];
usage_limits = ["cloudStorageLimit", "slaMaxUptime", "mailboxMaxCapacity", "webinarsMaxLimit", "limitOfFeature1"];
plans = ["APPS_FOR_BUSINESS", "BUSINESS_BASIC", "BUSINESS_STANDARD", "BUSINESS_PREMIUM"];
addons = [];

plans_prices = [8.25,6.0,12.5,22.0];
addons_prices = [];

plans_features = array2d(PLANS, FEATURES, [
    % APPS_FOR_BUSINESS
    1,0,0,0,0,1,1,0,0,0,0,0,0,1,1,1,1,0,0,0,0,1,1,1,1,1,1,1,1,0,1,1,1,1,1,0,0,1,1,1,1,1,1,0,0,0,0,0,0,0,0,0,0,0,0,
    % BUSINESS_BASIC
    1,1,1,1,1,1,1,1,1,1,1,1,1,1,1,1,1,1,1,1,1,1,1,1,1,1,1,1,1,1,1,1,1,1,1,0,0,0,0,0,0,0,1,1,1,0,0,0,0,0,0,0,0,0,
    % BUSINESS_STANDARD
    1,1,1,1,1,1,1,1,1,1,1,1,1,1,1,1,1,1,1,1,1,1,1,1,1,1,1,1,1,1,1,1,1,1,1,1,0,0,0,0,0,0,1,1,1,0,0,0,0,0,0,0,0,0,
    % BUSINESS_PREMIUM
    1,1,1,1,1,1,1,1,1,1,1,1,1,1,1,1,1,1,1,1,1,1,1,1,1,1,1,1,1,1,1,1,1,1,1,1,0,0,0,0,0,0,1,1,1,1,1,1,1,1,1,1,1,1,
]);
plans_usage_limits = array2d(PLANS, USAGE_LIMITS, [
    % APPS_FOR_BUSINESS
    1000,99,50,300,0,
    % BUSINESS_BASIC
    1000,99,50,300,0,
    % BUSINESS_STANDARD
    1000,99,50,300,0,
    % BUSINESS_PREMIUM
    1000,99,50,300,0,
]);

linked_features = array2d(USAGE_LIMITS, FEATURES, [
    % cloudStorageLimit
    1,0,0,0,0,0,0,0,0,0,0,0,0,0,0,0,0,0,0,0,0,0,0,0,0,0,0,0,0,0,0,0,0,0,0,0,0,0,0,0,0,0,0,0,0,0,0,0,0,0,0,0,0,0,0,
    % slaMaxUptime
    0,0,0,0,0,0,0,0,0,0,0,0,0,0,0,0,0,0,0,0,0,0,0,0,0,0,0,0,0,0,0,0,0,0,0,0,0,0,0,0,0,0,0,0,0,0,0,0,0,0,0,0,0,0,1,
    % mailboxMaxCapacity
    0,0,1,0,0,0,0,0,0,0,0,0,0,0,0,0,0,0,0,0,0,0,0,0,0,0,0,0,0,0,0,0,0,0,0,0,0,0,0,0,0,0,0,0,0,0,0,0,0,0,0,0,0,0,0,
    % webinarsMaxLimit
    0,0,0,0,0,0,0,0,0,1,1,0,0,0,0,0,0,0,0,0,0,0,0,0,0,0,0,0,0,0,0,0,0,0,0,0,0,0,0,0,0,0,0,0,0,0,0,0,0,0,0,0,0,0,0,
    % limitOfFeature1
    0,0,0,0,0,0,0,0,0,0,0,0,0,0,0,0,0,0,0,0,0,0,0,0,0,0,0,0,0,0,0,0,0,0,0,0,0,0,0,0,0,0,0,0,0,0,0,0,0,0,0,0,0,0,0,
]);

addons_features = array2d(ADDONS, FEATURES, [
]);
addons_usage_limits = array2d(ADDONS, USAGE_LIMITS, [
]);
addons_usage_limits_extensions = array2d(ADDONS, USAGE_LIMITS, [
]);
addons_available_for = array2d(ADDONS, PLANS, [
]);

addons_depends_on = array2d(ADDONS, ADDONS, [
]);